language Essence 1.3

letting blksize_delta be
        function(1 --> 10, 2 --> 8, 3 --> 8, 4 --> 9, 5 --> 10, 6 --> 8, 7 --> 9, 8 --> 9, 9 --> 10, 10 --> 8)
letting maxcars be
        function(1 --> 10, 2 --> 9, 3 --> 10, 4 --> 9, 5 --> 9, 6 --> 9, 7 --> 9, 8 --> 9, 9 --> 10, 10 --> 10)
letting n_cars be 104
letting n_classes be 34
letting n_options be 10
letting quantity be
        function(1 --> 3, 2 --> 4, 3 --> 3, 4 --> 3, 5 --> 4, 6 --> 3, 7 --> 3, 8 --> 3, 9 --> 3, 10 --> 3, 11 --> 3,
                 12 --> 3, 13 --> 3, 14 --> 3, 15 --> 3, 16 --> 3, 17 --> 3, 18 --> 3, 19 --> 3, 20 --> 3, 21 --> 3,
                 22 --> 3, 23 --> 3, 24 --> 3, 25 --> 3, 26 --> 3, 27 --> 3, 28 --> 3, 29 --> 3, 30 --> 3, 31 --> 3,
                 32 --> 3, 33 --> 3, 34 --> 3)
letting usage be
        relation((1, 2), (1, 6), (2, 2), (2, 4), (3, 3), (3, 5), (3, 7), (3, 8), (3, 9), (4, 2), (4, 6), (4, 7), (4, 8),
                 (5, 2), (5, 3), (5, 4), (5, 5), (5, 6), (5, 8), (5, 9), (6, 8), (7, 7), (7, 9), (8, 1), (8, 5), (8, 6),
                 (8, 8), (9, 2), (9, 6), (9, 8), (10, 9), (11, 2), (11, 4), (11, 7), (11, 9), (12, 2), (12, 3), (12, 4),
                 (12, 6), (12, 7), (13, 1), (13, 2), (13, 3), (13, 6), (13, 8), (14, 4), (14, 7), (14, 8), (15, 3),
                 (15, 4), (15, 6), (15, 7), (15, 9), (16, 4), (16, 6), (16, 8), (17, 1), (17, 2), (17, 3), (17, 4),
                 (17, 6), (18, 1), (18, 2), (18, 5), (18, 7), (18, 9), (19, 3), (19, 7), (19, 8), (19, 9), (20, 2),
                 (20, 3), (20, 9), (21, 1), (21, 4), (21, 5), (21, 6), (21, 7), (22, 1), (22, 3), (22, 6), (23, 2),
                 (23, 4), (23, 5), (23, 7), (24, 2), (24, 4), (24, 7), (24, 9), (25, 1), (25, 2), (25, 6), (25, 7),
                 (25, 8), (26, 2), (27, 1), (27, 7), (27, 8), (27, 9), (28, 7), (29, 1), (29, 3), (29, 4), (29, 5),
                 (29, 6), (29, 8), (30, 1), (30, 2), (30, 4), (30, 5), (30, 6), (30, 7), (30, 9), (31, 2), (31, 9),
                 (32, 4), (32, 5), (32, 8), (32, 9), (33, 3), (33, 9), (34, 10))
$ Visualisation for usage
$  1  2
$  1  6
$  2  2
$  2  4
$  3  3
$  3  5
$  3  7
$  3  8
$  3  9
$  4  2
$  4  6
$  4  7
$  4  8
$  5  2
$  5  3
$  5  4
$  5  5
$  5  6
$  5  8
$  5  9
$  6  8
$  7  7
$  7  9
$  8  1
$  8  5
$  8  6
$  8  8
$  9  2
$  9  6
$  9  8
$ 10  9
$ 11  2
$ 11  4
$ 11  7
$ 11  9
$ 12  2
$ 12  3
$ 12  4
$ 12  6
$ 12  7
$ 13  1
$ 13  2
$ 13  3
$ 13  6
$ 13  8
$ 14  4
$ 14  7
$ 14  8
$ 15  3
$ 15  4
$ 15  6
$ 15  7
$ 15  9
$ 16  4
$ 16  6
$ 16  8
$ 17  1
$ 17  2
$ 17  3
$ 17  4
$ 17  6
$ 18  1
$ 18  2
$ 18  5
$ 18  7
$ 18  9
$ 19  3
$ 19  7
$ 19  8
$ 19  9
$ 20  2
$ 20  3
$ 20  9
$ 21  1
$ 21  4
$ 21  5
$ 21  6
$ 21  7
$ 22  1
$ 22  3
$ 22  6
$ 23  2
$ 23  4
$ 23  5
$ 23  7
$ 24  2
$ 24  4
$ 24  7
$ 24  9
$ 25  1
$ 25  2
$ 25  6
$ 25  7
$ 25  8
$ 26  2
$ 27  1
$ 27  7
$ 27  8
$ 27  9
$ 28  7
$ 29  1
$ 29  3
$ 29  4
$ 29  5
$ 29  6
$ 29  8
$ 30  1
$ 30  2
$ 30  4
$ 30  5
$ 30  6
$ 30  7
$ 30  9
$ 31  2
$ 31  9
$ 32  4
$ 32  5
$ 32  8
$ 32  9
$ 33  3
$ 33  9
$ 34 10

